Rodando pra 1h

Optimize a model with 490039 rows, 733980 columns and 8548904 nonzeros
Coefficient statistics:
  Matrix range    [1e+00, 1e+04]
  Objective range [3e-01, 3e-01]
  Bounds range    [1e+00, 1e+04]
  RHS range       [1e+00, 1e+04]
Presolve removed 1 rows and 1 columns (presolve time = 10s) ...
Presolve removed 2 rows and 2 columns (presolve time = 15s) ...
Presolve removed 2 rows and 2 columns (presolve time = 21s) ...
Presolve removed 2 rows and 2 columns (presolve time = 25s) ...
Presolve removed 2 rows and 2 columns (presolve time = 30s) ...
Presolve removed 2 rows and 2 columns (presolve time = 36s) ...
Presolve removed 2 rows and 2 columns (presolve time = 41s) ...
Presolve removed 2 rows and 2 columns (presolve time = 45s) ...
Presolve removed 2 rows and 2 columns (presolve time = 52s) ...
Presolve removed 2 rows and 2 columns (presolve time = 55s) ...
Presolve removed 2 rows and 2 columns (presolve time = 61s) ...
Presolve removed 2 rows and 2 columns (presolve time = 69s) ...
Presolve removed 2 rows and 2 columns (presolve time = 71s) ...
Presolve removed 2 rows and 2 columns (presolve time = 84s) ...
Presolve removed 2 rows and 2 columns
Presolve time: 83.91s
Presolved: 490037 rows, 733978 columns, 8548895 nonzeros
Variable types: 489300 continuous, 244678 integer (244675 binary)
Optimize a model with 490037 rows, 733978 columns and 8548895 nonzeros
Coefficient statistics:
  Matrix range    [1e+00, 1e+04]
  Objective range [3e-01, 3e-01]
  Bounds range    [1e+00, 1e+04]
  RHS range       [1e+00, 2e+04]
Presolve removed 0 rows and 0 columns (presolve time = 6s) ...
Presolved: 490037 rows, 733978 columns, 8548895 nonzeros


Root simplex log...

Iteration    Objective       Primal Inf.    Dual Inf.      Time
       0    0.0000000e+00   2.104683e+03   0.000000e+00    124s
    1420    0.0000000e+00   0.000000e+00   0.000000e+00    125s

Root relaxation: objective 0.000000e+00, 1420 iterations, 10.06 seconds

    Nodes    |    Current Node    |     Objective Bounds      |     Work
 Expl Unexpl |  Obj  Depth IntInf | Incumbent    BestBd   Gap | It/Node Time

     0     0    0.00000    0  712          -    0.00000      -     - 3601s

Explored 0 nodes (307266 simplex iterations) in 3601.21 seconds
Thread count was 1 (of 4 available processors)

Time limit reached
Best objective -, best bound 0.000000000000e+00, gap -
Tempo: 3591.72 segundos

Error code = 10004
Var::get
